# Objective value = 10385.54
I_0_0 1631
I_0_1 2.3550000000000014e+03
I_0_2 1.9970000000000014e+03
I_0_3 1.8439999999999991e+03
I_0_4 2.0610000000000005e+03
I_0_5 1712
I_0_6 2.4359999999999995e+03
I_1_0 106
I_1_1 5.2999999999999950e+01
I_1_2 -8.5265128291212022e-14
I_1_3 1.0600000000000004e+02
I_1_4 106
I_1_5 5.2999999999999993e+01
I_1_6 1.7763568394002505e-14
I_2_0 56
I_2_1 28
I_2_2 -2.8421709430404007e-14
I_2_3 5.6000000000000043e+01
I_2_4 5.5999999999999986e+01
I_2_5 2.7999999999999982e+01
I_2_6 1.4210854715202004e-14
I_3_0 86
I_3_1 0
I_3_2 86
I_3_3 0
I_3_4 86
I_3_5 86
I_3_6 0
I_4_0 28
I_4_1 14
I_4_2 -1.4210854715202004e-14
I_4_3 2.8000000000000018e+01
I_4_4 1.4000000000000028e+01
I_4_5 2.7999999999999993e+01
I_4_6 1.3999999999999996e+01
I_5_0 55
I_5_1 -1.5265566588595902e-15
I_5_2 55
I_5_3 55
I_5_4 0
I_5_5 55
I_5_6 9.1593399531575415e-15
I_6_0 97
I_6_1 0
I_6_2 97
I_6_3 97
I_6_4 0
I_6_5 97
I_6_6 0
I_7_0 60
I_7_1 30
I_7_2 -1.4210854715202004e-14
I_7_3 60
I_7_4 3.0000000000000011e+01
I_7_5 60
I_7_6 30
I_8_0 93
I_8_1 0
I_8_2 93
I_8_3 93
I_8_4 0
I_8_5 93
I_8_6 0
I_9_0 84
I_9_1 4.1999999999999986e+01
I_9_2 -5.6843418860808015e-14
I_9_3 84
I_9_4 4.1999999999999865e+01
I_9_5 8.3999999999999972e+01
I_9_6 4.1999999999999986e+01
I_10_0 32
I_10_1 16
I_10_2 -7.1054273576010019e-15
I_10_3 32
I_10_4 1.5999999999999932e+01
I_10_5 32
I_10_6 1.6000000000000004e+01
I_11_0 13
I_11_1 -3.5180192092809648e-15
I_11_2 1.3000000000000004e+01
I_11_3 1.3000000000000004e+01
I_11_4 1.7139067942650854e-15
I_11_5 1.2999999999999996e+01
I_11_6 5.4123372450476381e-16
I_12_0 36
I_12_1 -1.7486012637846216e-15
I_12_2 36
I_12_3 36
I_12_4 0
I_12_5 3.5999999999999993e+01
I_12_6 0
I_13_0 34
I_13_1 -1.6514567491299204e-15
I_13_2 34
I_13_3 34
I_13_4 0
I_13_5 3.3999999999999993e+01
I_13_6 0
I_14_0 55
I_14_1 9.5409791178724390e-15
I_14_2 5.4999999999999986e+01
I_14_3 0
I_14_4 55
I_14_5 55
I_14_6 0
I_15_0 72
I_15_1 0
I_15_2 72
I_15_3 0
I_15_4 72
I_15_5 72
I_15_6 0
q_1_0 -4.9280024505549136e-14
q_1_1 8.6597395920762210e-15
q_1_2 1.5900000000000014e+02
q_1_3 5.2999999999999957e+01
q_1_4 0
q_1_5 5.6843418860808015e-14
q_2_0 0
q_2_1 -3.9079850466805510e-14
q_2_2 8.4000000000000071e+01
q_2_3 2.7999999999999936e+01
q_2_4 0
q_2_5 3.5527136788005009e-14
q_3_0 0
q_3_1 172
q_3_2 0
q_3_3 172
q_3_4 86
q_3_5 0
q_4_0 0
q_4_1 -2.6645352591003757e-14
q_4_2 4.2000000000000028e+01
q_4_3 3.5527136788005009e-15
q_4_4 2.7999999999999972e+01
q_4_5 3.5527136788005009e-15
q_5_0 -1.5265566588595902e-15
q_5_1 110
q_5_2 55
q_5_3 0
q_5_4 110
q_5_5 9.1593399531575415e-15
q_6_0 0
q_6_1 194
q_6_2 97
q_6_3 0
q_6_4 194
q_6_5 0
q_7_0 0
q_7_1 -1.7763568394002505e-14
q_7_2 9.0000000000000014e+01
q_7_3 0
q_7_4 60
q_7_5 0
q_8_0 0
q_8_1 186
q_8_2 93
q_8_3 0
q_8_4 186
q_8_5 0
q_9_0 -1.1365908214600040e-14
q_9_1 0
q_9_2 1.2600000000000006e+02
q_9_3 -1.4122036873231991e-13
q_9_4 84.0000000000001
q_9_5 1.5099033134902129e-14
q_10_0 0
q_10_1 -8.6597395920762210e-15
q_10_2 4.8000000000000007e+01
q_10_3 -7.1054273576010019e-14
q_10_4 3.2000000000000064e+01
q_10_5 1.9984014443252818e-15
q_11_0 -3.5180192092809648e-15
q_11_1 2.6000000000000007e+01
q_11_2 13
q_11_3 -1.8388068845354155e-15
q_11_4 2.5999999999999993e+01
q_11_5 4.0939474033052647e-15
q_12_0 -1.7486012637846216e-15
q_12_1 72
q_12_2 36
q_12_3 0
q_12_4 72
q_12_5 7.1054273576010019e-15
q_13_0 -1.6514567491299204e-15
q_13_1 68
q_13_2 34
q_13_3 0
q_13_4 68
q_13_5 7.1054273576010019e-15
q_14_0 9.5409791178724390e-15
q_14_1 1.0999999999999997e+02
q_14_2 1.4210854715202004e-14
q_14_3 110
q_14_4 55
q_14_5 0
q_15_0 0
q_15_1 144
q_15_2 0
q_15_3 144
q_15_4 72
q_15_5 0
y_0_0 -6.2450045135165055e-16
y_0_1 1
y_0_2 1
y_0_3 1
y_0_4 1
y_0_5 1.6653345369377348e-16
y_1_0 -9.2981178312356860e-16
y_1_1 1.0755285551056204e-16
y_1_2 1.0000000000000002e+00
y_1_3 9.9999999999999978e-01
y_1_4 0
y_1_5 3.8857805861880479e-16
y_2_0 0
y_2_1 -7.4940054162198066e-16
y_2_2 1.0000000000000007e+00
y_2_3 9.9999999999999978e-01
y_2_4 0
y_2_5 3.8857805861880479e-16
y_3_0 0
y_3_1 1
y_3_2 0
y_3_3 1
y_3_4 1
y_3_5 0
y_4_0 0
y_4_1 -6.2450045135165055e-16
y_4_2 1.0000000000000007e+00
y_4_3 0
y_4_4 9.9999999999999978e-01
y_4_5 0
y_5_0 -2.7755575615628914e-17
y_5_1 1
y_5_2 1
y_5_3 0
y_5_4 1
y_5_5 1.6653345369377348e-16
y_6_0 0
y_6_1 1
y_6_2 1
y_6_3 0
y_6_4 1
y_6_5 0
y_7_0 0
y_7_1 0
y_7_2 1
y_7_3 0
y_7_4 1
y_7_5 0
y_8_0 0
y_8_1 1
y_8_2 1
y_8_3 0
y_8_4 1
y_8_5 0
y_9_0 -2.7061686225238191e-16
y_9_1 0
y_9_2 1.0000000000000002e+00
y_9_3 0
y_9_4 1
y_9_5 1.1796119636642288e-16
y_10_0 0
y_10_1 -2.7061686225238191e-16
y_10_2 1.0000000000000002e+00
y_10_3 0
y_10_4 1
y_10_5 6.9388939039072284e-17
y_11_0 -2.7061686225238191e-16
y_11_1 1.0000000000000002e+00
y_11_2 1.0000000000000002e+00
y_11_3 1.3183898417423734e-16
y_11_4 9.9999999999999978e-01
y_11_5 4.1633363423443370e-17
y_12_0 -4.85722573273506e-17
y_12_1 1
y_12_2 1
y_12_3 0
y_12_4 9.9999999999999989e-01
y_12_5 0
y_13_0 -4.85722573273506e-17
y_13_1 1
y_13_2 1
y_13_3 0
y_13_4 9.9999999999999978e-01
y_13_5 0
y_14_0 1.7347234759768071e-16
y_14_1 9.9999999999999978e-01
y_14_2 0
y_14_3 1
y_14_4 1
y_14_5 0
y_15_0 0
y_15_1 1
y_15_2 0
y_15_3 1
y_15_4 1
y_15_5 0
x_0_1_0 -1.8596235662471372e-15
x_0_1_1 1.0755285551056204e-16
x_0_1_2 9.9999999999999989e-01
x_0_1_3 9.9999999999999978e-01
x_0_1_4 0
x_0_1_5 -8.3266726846886741e-17
x_0_2_0 0
x_0_2_1 -1.0547118733938987e-15
x_0_2_2 0
x_0_2_3 0
x_0_2_4 0
x_0_2_5 3.0531133177191805e-16
x_0_3_0 0
x_0_3_1 1.0000000000000013e+00
x_0_3_2 0
x_0_3_3 0
x_0_3_4 1
x_0_3_5 0
x_0_4_0 0
x_0_4_1 0
x_0_4_2 0
x_0_4_3 0
x_0_4_4 -2.7755575615628914e-16
x_0_4_5 0
x_0_5_0 0
x_0_5_1 0
x_0_5_2 0
x_0_5_3 0
x_0_5_4 -4.9960036108132044e-16
x_0_5_5 0
x_0_6_0 0
x_0_6_1 0
x_0_6_2 0
x_0_6_3 0
x_0_6_4 0
x_0_6_5 0
x_0_7_0 0
x_0_7_1 0
x_0_7_2 0
x_0_7_3 0
x_0_7_4 0
x_0_7_5 0
x_0_8_0 0
x_0_8_1 0
x_0_8_2 0
x_0_8_3 0
x_0_8_4 0
x_0_8_5 0
x_0_9_0 0
x_0_9_1 0
x_0_9_2 0
x_0_9_3 0
x_0_9_4 0
x_0_9_5 0
x_0_10_0 0
x_0_10_1 0
x_0_10_2 0
x_0_10_3 0
x_0_10_4 0
x_0_10_5 0
x_0_11_0 0
x_0_11_1 0
x_0_11_2 0
x_0_11_3 0
x_0_11_4 0
x_0_11_5 0
x_0_12_0 0
x_0_12_1 0
x_0_12_2 0
x_0_12_3 0
x_0_12_4 0
x_0_12_5 0
x_0_13_0 -2.2204460492503131e-16
x_0_13_1 0
x_0_13_2 1
x_0_13_3 0
x_0_13_4 0
x_0_13_5 0
x_0_14_0 3.4694469519536142e-16
x_0_14_1 0
x_0_14_2 0
x_0_14_3 3.8857805861880479e-16
x_0_14_4 1.3183898417423734e-16
x_0_14_5 0
x_0_15_0 0
x_0_15_1 1
x_0_15_2 -9.71445146547012e-17
x_0_15_3 1
x_0_15_4 9.9999999999999978e-01
x_0_15_5 0
x_1_2_0 0
x_1_2_1 1.0755285551056204e-16
x_1_2_2 1.0000000000000009e+00
x_1_2_3 9.9999999999999978e-01
x_1_2_4 0
x_1_2_5 3.8857805861880479e-16
x_1_3_0 0
x_1_3_1 0
x_1_3_2 0
x_1_3_3 0
x_1_3_4 0
x_1_3_5 0
x_1_4_0 0
x_1_4_1 0
x_1_4_2 0
x_1_4_3 0
x_1_4_4 0
x_1_4_5 0
x_1_5_0 0
x_1_5_1 0
x_1_5_2 0
x_1_5_3 0
x_1_5_4 0
x_1_5_5 0
x_1_6_0 0
x_1_6_1 0
x_1_6_2 0
x_1_6_3 0
x_1_6_4 0
x_1_6_5 0
x_1_7_0 0
x_1_7_1 0
x_1_7_2 0
x_1_7_3 0
x_1_7_4 0
x_1_7_5 0
x_1_8_0 0
x_1_8_1 0
x_1_8_2 0
x_1_8_3 0
x_1_8_4 0
x_1_8_5 0
x_1_9_0 0
x_1_9_1 0
x_1_9_2 0
x_1_9_3 0
x_1_9_4 0
x_1_9_5 0
x_1_10_0 0
x_1_10_1 0
x_1_10_2 0
x_1_10_3 0
x_1_10_4 0
x_1_10_5 0
x_1_11_0 0
x_1_11_1 0
x_1_11_2 0
x_1_11_3 0
x_1_11_4 0
x_1_11_5 0
x_1_12_0 0
x_1_12_1 0
x_1_12_2 0
x_1_12_3 0
x_1_12_4 0
x_1_12_5 0
x_1_13_0 0
x_1_13_1 0
x_1_13_2 0
x_1_13_3 0
x_1_13_4 0
x_1_13_5 0
x_1_14_0 0
x_1_14_1 0
x_1_14_2 0
x_1_14_3 -7.6327832942979512e-17
x_1_14_4 0
x_1_14_5 0
x_1_15_0 0
x_1_15_1 0
x_1_15_2 0
x_1_15_3 0
x_1_15_4 0
x_1_15_5 0
x_2_3_0 0
x_2_3_1 -6.2450045135165055e-16
x_2_3_2 0
x_2_3_3 1
x_2_3_4 0
x_2_3_5 0
x_2_4_0 0
x_2_4_1 0
x_2_4_2 1.0000000000000002e+00
x_2_4_3 -1.1102230246251565e-16
x_2_4_4 0
x_2_4_5 0
x_2_5_0 0
x_2_5_1 0
x_2_5_2 0
x_2_5_3 0
x_2_5_4 0
x_2_5_5 0
x_2_6_0 0
x_2_6_1 0
x_2_6_2 0
x_2_6_3 0
x_2_6_4 0
x_2_6_5 0
x_2_7_0 0
x_2_7_1 0
x_2_7_2 0
x_2_7_3 0
x_2_7_4 0
x_2_7_5 0
x_2_8_0 0
x_2_8_1 0
x_2_8_2 0
x_2_8_3 0
x_2_8_4 0
x_2_8_5 0
x_2_9_0 0
x_2_9_1 0
x_2_9_2 0
x_2_9_3 0
x_2_9_4 0
x_2_9_5 0
x_2_10_0 0
x_2_10_1 0
x_2_10_2 0
x_2_10_3 0
x_2_10_4 0
x_2_10_5 0
x_2_11_0 0
x_2_11_1 0
x_2_11_2 0
x_2_11_3 0
x_2_11_4 0
x_2_11_5 0
x_2_12_0 0
x_2_12_1 0
x_2_12_2 0
x_2_12_3 0
x_2_12_4 0
x_2_12_5 0
x_2_13_0 0
x_2_13_1 0
x_2_13_2 0
x_2_13_3 0
x_2_13_4 0
x_2_13_5 0
x_2_14_0 0
x_2_14_1 0
x_2_14_2 0
x_2_14_3 -1.6653345369377348e-16
x_2_14_4 0
x_2_14_5 0
x_2_15_0 0
x_2_15_1 0
x_2_15_2 0
x_2_15_3 0
x_2_15_4 0
x_2_15_5 0
x_3_4_0 0
x_3_4_1 -6.1062266354383610e-16
x_3_4_2 0
x_3_4_3 0
x_3_4_4 9.9999999999999978e-01
x_3_4_5 0
x_3_5_0 0
x_3_5_1 9.9999999999999978e-01
x_3_5_2 0
x_3_5_3 0
x_3_5_4 0
x_3_5_5 1.6653345369377348e-16
x_3_6_0 0
x_3_6_1 0
x_3_6_2 0
x_3_6_3 0
x_3_6_4 0
x_3_6_5 0
x_3_7_0 0
x_3_7_1 0
x_3_7_2 0
x_3_7_3 0
x_3_7_4 0
x_3_7_5 0
x_3_8_0 0
x_3_8_1 0
x_3_8_2 0
x_3_8_3 0
x_3_8_4 0
x_3_8_5 0
x_3_9_0 0
x_3_9_1 0
x_3_9_2 0
x_3_9_3 0
x_3_9_4 0
x_3_9_5 0
x_3_10_0 0
x_3_10_1 0
x_3_10_2 0
x_3_10_3 0
x_3_10_4 0
x_3_10_5 0
x_3_11_0 0
x_3_11_1 0
x_3_11_2 0
x_3_11_3 0
x_3_11_4 0
x_3_11_5 0
x_3_12_0 0
x_3_12_1 0
x_3_12_2 0
x_3_12_3 0
x_3_12_4 0
x_3_12_5 0
x_3_13_0 0
x_3_13_1 0
x_3_13_2 0
x_3_13_3 0
x_3_13_4 0
x_3_13_5 0
x_3_14_0 0
x_3_14_1 0
x_3_14_2 0
x_3_14_3 1
x_3_14_4 0
x_3_14_5 0
x_3_15_0 0
x_3_15_1 0
x_3_15_2 0
x_3_15_3 0
x_3_15_4 0
x_3_15_5 0
x_4_5_0 0
x_4_5_1 -6.2450045135165055e-16
x_4_5_2 1.0000000000000002e+00
x_4_5_3 0
x_4_5_4 1
x_4_5_5 2.2204460492503131e-16
x_4_6_0 0
x_4_6_1 0
x_4_6_2 0
x_4_6_3 0
x_4_6_4 0
x_4_6_5 0
x_4_7_0 0
x_4_7_1 -4.4408920985006262e-16
x_4_7_2 0
x_4_7_3 0
x_4_7_4 0
x_4_7_5 0
x_4_8_0 0
x_4_8_1 0
x_4_8_2 0
x_4_8_3 0
x_4_8_4 0
x_4_8_5 0
x_4_9_0 0
x_4_9_1 0
x_4_9_2 0
x_4_9_3 0
x_4_9_4 0
x_4_9_5 0
x_4_10_0 0
x_4_10_1 0
x_4_10_2 0
x_4_10_3 0
x_4_10_4 0
x_4_10_5 0
x_4_11_0 0
x_4_11_1 0
x_4_11_2 0
x_4_11_3 0
x_4_11_4 0
x_4_11_5 0
x_4_12_0 0
x_4_12_1 0
x_4_12_2 0
x_4_12_3 0
x_4_12_4 0
x_4_12_5 0
x_4_13_0 0
x_4_13_1 0
x_4_13_2 0
x_4_13_3 0
x_4_13_4 0
x_4_13_5 0
x_4_14_0 0
x_4_14_1 0
x_4_14_2 0
x_4_14_3 0
x_4_14_4 0
x_4_14_5 0
x_4_15_0 0
x_4_15_1 0
x_4_15_2 0
x_4_15_3 0
x_4_15_4 0
x_4_15_5 0
x_5_6_0 0
x_5_6_1 9.9999999999999978e-01
x_5_6_2 0
x_5_6_3 0
x_5_6_4 0
x_5_6_5 0
x_5_7_0 -5.5511151231257827e-17
x_5_7_1 0
x_5_7_2 1
x_5_7_3 0
x_5_7_4 1
x_5_7_5 0
x_5_8_0 0
x_5_8_1 0
x_5_8_2 0
x_5_8_3 0
x_5_8_4 0
x_5_8_5 0
x_5_9_0 0
x_5_9_1 0
x_5_9_2 0
x_5_9_3 0
x_5_9_4 0
x_5_9_5 0
x_5_10_0 0
x_5_10_1 0
x_5_10_2 0
x_5_10_3 0
x_5_10_4 0
x_5_10_5 0
x_5_11_0 0
x_5_11_1 0
x_5_11_2 0
x_5_11_3 0
x_5_11_4 0
x_5_11_5 0
x_5_12_0 0
x_5_12_1 0
x_5_12_2 0
x_5_12_3 0
x_5_12_4 0
x_5_12_5 0
x_5_13_0 0
x_5_13_1 0
x_5_13_2 0
x_5_13_3 0
x_5_13_4 0
x_5_13_5 0
x_5_14_0 0
x_5_14_1 0
x_5_14_2 0
x_5_14_3 0
x_5_14_4 0
x_5_14_5 0
x_5_15_0 0
x_5_15_1 0
x_5_15_2 0
x_5_15_3 0
x_5_15_4 0
x_5_15_5 0
x_6_7_0 0
x_6_7_1 4.4408920985006262e-16
x_6_7_2 1.0000000000000007e+00
x_6_7_3 0
x_6_7_4 1
x_6_7_5 0
x_6_8_0 0
x_6_8_1 1
x_6_8_2 1
x_6_8_3 0
x_6_8_4 1
x_6_8_5 0
x_6_9_0 -5.5511151231257827e-17
x_6_9_1 0
x_6_9_2 -5.4123372450476381e-16
x_6_9_3 0
x_6_9_4 0
x_6_9_5 0
x_6_10_0 0
x_6_10_1 0
x_6_10_2 0
x_6_10_3 0
x_6_10_4 0
x_6_10_5 0
x_6_11_0 0
x_6_11_1 0
x_6_11_2 0
x_6_11_3 0
x_6_11_4 0
x_6_11_5 0
x_6_12_0 0
x_6_12_1 0
x_6_12_2 0
x_6_12_3 0
x_6_12_4 0
x_6_12_5 0
x_6_13_0 0
x_6_13_1 0
x_6_13_2 0
x_6_13_3 0
x_6_13_4 0
x_6_13_5 0
x_6_14_0 0
x_6_14_1 0
x_6_14_2 0
x_6_14_3 0
x_6_14_4 0
x_6_14_5 0
x_6_15_0 0
x_6_15_1 0
x_6_15_2 0
x_6_15_3 0
x_6_15_4 0
x_6_15_5 0
x_7_8_0 0
x_7_8_1 0
x_7_8_2 0
x_7_8_3 0
x_7_8_4 0
x_7_8_5 0
x_7_9_0 0
x_7_9_1 0
x_7_9_2 0
x_7_9_3 0
x_7_9_4 0
x_7_9_5 0
x_7_10_0 0
x_7_10_1 0
x_7_10_2 0
x_7_10_3 0
x_7_10_4 0
x_7_10_5 0
x_7_11_0 0
x_7_11_1 0
x_7_11_2 0
x_7_11_3 0
x_7_11_4 0
x_7_11_5 0
x_7_12_0 0
x_7_12_1 0
x_7_12_2 0
x_7_12_3 0
x_7_12_4 0
x_7_12_5 0
x_7_13_0 0
x_7_13_1 0
x_7_13_2 0
x_7_13_3 0
x_7_13_4 0
x_7_13_5 0
x_7_14_0 0
x_7_14_1 0
x_7_14_2 0
x_7_14_3 0
x_7_14_4 0
x_7_14_5 0
x_7_15_0 0
x_7_15_1 0
x_7_15_2 0
x_7_15_3 0
x_7_15_4 0
x_7_15_5 0
x_8_9_0 0
x_8_9_1 0
x_8_9_2 0
x_8_9_3 0
x_8_9_4 0
x_8_9_5 0
x_8_10_0 0
x_8_10_1 -2.7061686225238191e-16
x_8_10_2 1.0000000000000004e+00
x_8_10_3 0
x_8_10_4 1
x_8_10_5 0
x_8_11_0 0
x_8_11_1 1.0000000000000002e+00
x_8_11_2 0
x_8_11_3 0
x_8_11_4 0
x_8_11_5 0
x_8_12_0 0
x_8_12_1 0
x_8_12_2 0
x_8_12_3 0
x_8_12_4 0
x_8_12_5 0
x_8_13_0 0
x_8_13_1 0
x_8_13_2 -5.4123372450476381e-16
x_8_13_3 0
x_8_13_4 0
x_8_13_5 0
x_8_14_0 0
x_8_14_1 0
x_8_14_2 0
x_8_14_3 0
x_8_14_4 0
x_8_14_5 0
x_8_15_0 0
x_8_15_1 0
x_8_15_2 0
x_8_15_3 0
x_8_15_4 0
x_8_15_5 0
x_9_10_0 0
x_9_10_1 0
x_9_10_2 1
x_9_10_3 0
x_9_10_4 1.0000000000000002e+00
x_9_10_5 6.9388939039072284e-17
x_9_11_0 -2.7061686225238191e-16
x_9_11_1 0
x_9_11_2 1.0000000000000002e+00
x_9_11_3 0
x_9_11_4 9.9999999999999978e-01
x_9_11_5 0
x_9_12_0 0
x_9_12_1 0
x_9_12_2 0
x_9_12_3 0
x_9_12_4 0
x_9_12_5 0
x_9_13_0 -2.0122792321330962e-16
x_9_13_1 0
x_9_13_2 0
x_9_13_3 0
x_9_13_4 0
x_9_13_5 1.3877787807814457e-16
x_9_14_0 0
x_9_14_1 0
x_9_14_2 1.3877787807814457e-16
x_9_14_3 0
x_9_14_4 0
x_9_14_5 0
x_9_15_0 0
x_9_15_1 0
x_9_15_2 0
x_9_15_3 0
x_9_15_4 0
x_9_15_5 0
x_10_11_0 0
x_10_11_1 0
x_10_11_2 0
x_10_11_3 0
x_10_11_4 1.9428902930940239e-16
x_10_11_5 6.9388939039072284e-17
x_10_12_0 0
x_10_12_1 0
x_10_12_2 0
x_10_12_3 0
x_10_12_4 0
x_10_12_5 0
x_10_13_0 0
x_10_13_1 -2.7061686225238191e-16
x_10_13_2 0
x_10_13_3 0
x_10_13_4 0
x_10_13_5 0
x_10_14_0 0
x_10_14_1 0
x_10_14_2 0
x_10_14_3 0
x_10_14_4 0
x_10_14_5 0
x_10_15_0 0
x_10_15_1 0
x_10_15_2 0
x_10_15_3 0
x_10_15_4 0
x_10_15_5 0
x_11_12_0 -2.7061686225238191e-16
x_11_12_1 1
x_11_12_2 1.0000000000000002e+00
x_11_12_3 0
x_11_12_4 9.9999999999999978e-01
x_11_12_5 -1.8041124150158794e-16
x_11_13_0 0
x_11_13_1 0
x_11_13_2 0
x_11_13_3 0
x_11_13_4 0
x_11_13_5 0
x_11_14_0 0
x_11_14_1 0
x_11_14_2 0
x_11_14_3 2.2204460492503131e-16
x_11_14_4 0
x_11_14_5 0
x_11_15_0 0
x_11_15_1 0
x_11_15_2 0
x_11_15_3 0
x_11_15_4 0
x_11_15_5 0
x_12_13_0 -2.7061686225238191e-16
x_12_13_1 1
x_12_13_2 1
x_12_13_3 0
x_12_13_4 9.9999999999999978e-01
x_12_13_5 8.3266726846886741e-17
x_12_14_0 0
x_12_14_1 0
x_12_14_2 -1.3877787807814457e-16
x_12_14_3 0
x_12_14_4 0
x_12_14_5 0
x_12_15_0 0
x_12_15_1 0
x_12_15_2 0
x_12_15_3 0
x_12_15_4 0
x_12_15_5 0
x_13_14_0 0
x_13_14_1 1.0000000000000004e+00
x_13_14_2 0
x_13_14_3 -2.2204460492503131e-16
x_13_14_4 9.9999999999999978e-01
x_13_14_5 0
x_13_15_0 0
x_13_15_1 0
x_13_15_2 9.71445146547012e-17
x_13_15_3 2.0816681711721685e-17
x_13_15_4 0
x_13_15_5 0
x_14_15_0 0
x_14_15_1 1
x_14_15_2 0
x_14_15_3 1
x_14_15_4 1.0000000000000002e+00
x_14_15_5 0
